NAME : amtsp
TYPE : ATSP
DIMENSION : 6
EDGE_WEIGHT_TYPE : EXPLICIT
EDGE_WEIGHT_FORMAT : FULL_MATRIX
EDGE_WEIGHT_SECTION
0 102256 204988 205402 205087 205242 
0 0 247 3555 4135 3735 
0 247 0 3335 3914 3515 
0 3555 3335 0 179 180 
0 4135 3914 179 0 254 
0 3735 3515 180 254 0 
